NAME : ClusterId_53 
COMMENT : (Gillet and Johnson) 
TYPE : CVRP 
DIMENSION : 9 
EDGE_WEIGHT_TYPE : EUC_2D 
CAPACITY : 160 
NODE_COORD_SECTION 
53 50 30 
39 59 15 
34 61 33 
30 58 27 
10 51 21 
50 56 37 
16 52 41 
49 48 28 
9 52 33 
DEMAND_SECTION 
53 2330
39 14
34 26
30 19
10 5
50 10
16 15
49 18
9 11
DEPOT_SECTION 
53
 -1
EOF